%RWF=./tmp/1491325781427395173/rwf
%Int=./tmp/1491325781427395173/int
%D2E=./tmp/1491325781427395173/d2e
%Scr=./tmp/1491325781427395173/skr
%NoSave
%chk=./tmp/1491325781427395173/chk
%nproc=3
%mem=1000mb
# B3lyp/3-21g nosym freq


0 1
6	-0.697669667349622879548576293018	0.126104623916277386319606534926	0.007869079291048760790849847524
6	0.636857572518060743860246475379	0.401428826422584261734982646885	0.129048034641967790392413917289
1	-1.585271190453801049002890977135	0.703639669750343754728305611934	0.182210513242768601394061533938
1	-0.927128331732867239090012390079	-0.912081750437368943273952481832	-0.218158462346151743593836158652
1	1.640603829906844612906979818945	0.386918429895789173222908630123	-0.250665344108595589123211766491
1	0.932607682929563974738584875013	-0.706009886440800649154425627785	0.149694529004000931315943034861

