%RWF=./tmp/6165481552517470805/rwf
%Int=./tmp/6165481552517470805/int
%D2E=./tmp/6165481552517470805/d2e
%Scr=./tmp/6165481552517470805/skr
%NoSave
%chk=./tmp/6165481552517470805/chk
%nproc=3
%mem=1000mb
# B3lyp/3-21g nosym freq


0 1
6	-0.021747438006269610710763373618	0.830014331851525510863609724765	0.064096288134717238627047208865
7	0.115961657203454526765540322231	0.859866511535026911694501450256	1.516601351916452067314367013751
7	1.150583467218155409028668145766	0.391974815455628844418356493406	2.104134669829169190791162691312
6	2.186623125054682148515894368757	-0.245353688707729861162576412426	1.324929033875626549487947158923
6	-0.820736869777992428254265178111	-0.012401972110007611349580258775	-0.587004098610989677453630974924
1	-1.341018296766322892565881375049	-0.810755978820869915857372234314	-0.069812969626861412497653702758
1	-0.983966866328499834004617241590	0.083622336808852740230868505478	-1.653866224086003589022197957092
6	3.272741852422772712571941156057	-0.665846132953281100164133476937	1.973309658593443094432018369844
1	3.345500268783268893457716330886	-0.522324983473928639021721664903	3.045778433083707437134535211953
1	4.094903413197137354018195765093	-1.150799883396328437967781610496	1.460935051275394025438458811550
1	2.044012127661805067191380658187	-0.370234642299840488455231479747	0.255124674479404123239589807781
1	0.479090559337811638940252123575	1.655740286110953141118784515129	-0.438035868864050881299476714048

