%RWF=./tmp/1491325781427395173/rwf
%Int=./tmp/1491325781427395173/int
%D2E=./tmp/1491325781427395173/d2e
%Scr=./tmp/1491325781427395173/skr
%NoSave
%chk=./tmp/1491325781427395173/chk
%nproc=3
%mem=1000mb
# B3lyp/3-21g nosym freq


0 1
6	-0.670172237823687066970990144910	0.097132008502803235394651437673	-0.000005605535770233863998362675
6	0.670169503247150077918092847540	0.097134687675741140933105555177	0.000001274326539879640587349884
1	-1.451788800602555662422332716233	0.797684826857085305107375461375	0.000008814864676998165074700911
1	-1.079969450440578127015101017605	-0.894817865987356797496943272563	-0.000008805108500418710098861172
1	1.451790142994034527035296378017	0.797681287269478178636461507267	-0.000001701933318616745559781651
1	1.079970738443814193274761237262	-0.894815031210926314919618107524	0.000004373111410838251962801635

