%RWF=./tmp/6165481552517470805/rwf
%Int=./tmp/6165481552517470805/int
%D2E=./tmp/6165481552517470805/d2e
%Scr=./tmp/6165481552517470805/skr
%NoSave
%chk=./tmp/6165481552517470805/chk
%nproc=3
%mem=1000mb
# B3lyp/3-21g nosym scf


0 1
6	-0.690371831913464850671857675479	-0.024181258225691129593037942414	-0.000002464799674408511262263186
6	0.632623650604377196771110902773	-0.064110641134251813988420565238	-0.000000042506259124934140424868
1	-1.240372680722279019605025496276	0.910235523477388230872975327657	0.000002660253130606978502975882
1	-1.285360028787783326365001812519	-0.933804740645679642874199544167	-0.000004752442561140114638256349
1	1.345841570057832115026030805893	1.073339862885352102850333722017	0.000004412423006753278377045473
1	1.237639216579495826664469859679	-0.961478833250292486134469527315	-0.000001463202604344043126821575

