%nproc=3
%chk=chk
%mem=1000mb
# B3lyp/3-21g nosym force


0 1
8	0.0000000	0.0000000	0.0000000
1	0.9226007	0.0000000	0.0000000
1	-0.7471256	0.6669942	0.0000000

