%nproc=3
%chk=chk
%mem=1000mb
# B3lyp/3-21g nosym force


0 1
6	-1.022740457549449644147898652591	0.802853489314609980453951720847	-0.666150179294029420873357594246
6	-0.405834123509539734797613164119	0.802853489314609980453951720847	0.664008011434049416621405725891
1	0.471139673457881436036132072331	0.436282223771399468859044645797	-1.239100263382854283378264881321
1	-1.487441049411376337019419224816	-0.279233310914237531363824018626	-0.900847023932577317673064953851
1	-1.587188599901822483317914702639	1.061047649559449190803661622340	1.146643630858948714745793040493
1	-0.303377574633083457733562227077	0.557878142061537185547592798684	1.770308066759091136788129006163

