%nproc=5
%chk=chk
%mem=1000mb
# B3lyp/3-21g nosym  freq

hessian

0 1
8	0.0000000	0.0000000	0.0000000
1	1.0421800	0.0000000	0.0000000
1	0.3104000	1.0045600	0.0000000

