%nproc=3
%chk=chk
%mem=1000mb
# B3lyp/3-21g nosym force


0 1
8	0.0000000	0.0000000	0.0000000
1	0.9661862	0.0000000	0.0000000
1	-0.6722609	0.6555808	0.0000000

