%nproc=5
%chk=chk
%mem=1000mb
# B3lyp/3-21g nosym  freq

hessian

0 1
8	0.0000000	0.0000000	0.0000000
1	0.9967173	0.0000000	0.0000000
1	-0.2385907	0.9677396	0.0000000

