%nproc=3
%chk=chk
%mem=1000mb
# B3lyp/3-21g nosym force


0 1
8	0.0000000	0.0000000	0.0000000
1	0.1167747	0.0000000	0.0000000
1	-3.4928694	1.0348518	0.0000000

