%nproc=5
%chk=chk
%mem=1000mb
# B3lyp/3-21g nosym  freq

hessian

0 1
8	0.0000000	0.0000000	0.0000000
1	1.0020532	0.0000000	0.0000000
1	-0.1593074	0.9894061	0.0000000

