%RWF=./tmp/8370785104702993942/rwf
%Int=./tmp/8370785104702993942/int
%D2E=./tmp/8370785104702993942/d2e
%Scr=./tmp/8370785104702993942/skr
%NoSave
%chk=./tmp/8370785104702993942/chk
%nproc=3
%mem=1000mb
# B3lyp/3-21g nosym freq


0 1
6	-0.472981947747262043701965694709	-0.079583393254161971519522467133	0.039120200955539079223921561379
6	0.853715764266010035399290245550	-0.002208169866427685517490386857	0.529002720334889375841669334477
1	-1.044607682553413852133417094592	0.735338114903114625775515378336	-0.423887020961115190686996356817
1	-1.073315379595724206041040815762	-0.956557053833107961970938504237	0.288206493246192241297620739715
1	1.284063042880610350238157479907	0.964652310605805141108248790260	0.190476036267644532884446562093
1	0.453126098567955271079199519590	-0.661641895448398131840406222182	-0.622920080118112950984254894138

