%RWF=./tmp/6448981619386639255/rwf
%Int=./tmp/6448981619386639255/int
%D2E=./tmp/6448981619386639255/d2e
%Scr=./tmp/6448981619386639255/skr
%NoSave
%chk=./tmp/6448981619386639255/chk
%nproc=1
%mem=1000mb
# B3lyp/3-21g nosym freq


0 1
6	-0.474414160336427082054200354833	0.077024093283971917234254078721	0.039835407695492097701617240091
6	0.854213173308728590527039159497	0.009377211595337692218166125713	0.524870910521313183139113789366
1	-1.076552232164678768455701174389	0.955049621070228171859639587638	0.283296025210493573887049478799
1	-1.044978032171566040275934028614	-0.742507130110735547035005765792	-0.416100356794800674276046947853
1	0.453715403017502183491416190009	0.659551226600971873814671653236	-0.626185036640236281080262870091
1	1.288015744164619391654014179949	-0.958495109332951789049559465639	0.194281399732779080924416348353

