%RWF=./tmp/14208666863779316762/rwf
%Int=./tmp/14208666863779316762/int
%D2E=./tmp/14208666863779316762/d2e
%Scr=./tmp/14208666863779316762/skr
%NoSave
%chk=./tmp/14208666863779316762/chk
%nproc=1
%mem=1000mb
# B3lyp/3-21g nosym freq


0 1
6	-0.329194780540608855634587825989	0.226045062817150893552664570052	-0.063827714996872481068024285378
6	0.756968688370716291657913643576	-0.249196619526256157861610063264	0.861569119646365733089510285936
1	-1.024996116013169755731837540225	0.929647722482701444057795470144	0.397603998343239228852041833306
1	-0.890611603223720793565121311985	-0.641916172799183448738347124163	-0.460276352721150361357871361179
1	0.120504225183636029528067012961	0.688338549414297951045682566473	-0.963711005202248727208313994197
1	1.367329482041324206775811944681	-0.952918629281892637372664012219	0.228640304655703424652202215839

