%RWF=./tmp/620491461164253268/rwf
%Int=./tmp/620491461164253268/int
%D2E=./tmp/620491461164253268/d2e
%Scr=./tmp/620491461164253268/skr
%NoSave
%chk=./tmp/620491461164253268/chk
%nproc=3
%mem=1000mb
# B3lyp/3-21g nosym freq


0 1
6	-0.774494774662637386342112222337	0.000000163550746198227797003981	-0.000002941576254600279091483070
6	0.774494610004867301000786028453	0.000000094735791193069134743881	-0.000000379429590040218287549435
1	-1.315272084609379499298142945918	0.938332249643310634112935986195	0.000004504370050189478738794993
1	-1.315270012580284975101108102535	-0.938332170527951481275863443443	-0.000006051953042255571388601410
1	1.315271314948781355980145235662	0.938331781063427738942550604406	0.000002625510460936440594137235
1	1.315270842716831367624763515778	-0.938332205358499149561168906075	0.000000592803414081578124389480

