%RWF=./tmp/2690320423575854410/rwf
%Int=./tmp/2690320423575854410/int
%D2E=./tmp/2690320423575854410/d2e
%Scr=./tmp/2690320423575854410/skr
%NoSave
%chk=./tmp/2690320423575854410/chk
%nproc=1
%mem=1000mb
# B3lyp/3-21g nosym freq


0 1
6	-0.473186560475076289922213845784	0.077660852882927414175817659725	0.040523480153498436795445059033
6	0.856190954948711113736692368548	0.012143135678382620257220736448	0.524834173073324916636295256467
1	-1.076676434801910664518231897091	0.954311509430779802976019254857	0.283035689418286273699720823060
1	-1.042953838525692455974080985470	-0.745023009021066773271968486370	-0.410896378840900189377549622805
1	0.446831510627620387410274815920	0.657081806155686010129102214705	-0.632214538841397111212927484303
1	1.289794264044525906598437359207	-0.956174382019886803796282492840	0.194715924762228848043932316614

