%RWF=./tmp/15377631774892834303/rwf
%Int=./tmp/15377631774892834303/int
%D2E=./tmp/15377631774892834303/d2e
%Scr=./tmp/15377631774892834303/skr
%NoSave
%chk=./tmp/15377631774892834303/chk
%nproc=1
%mem=1000mb
# B3lyp/3-21g nosym freq


0 1
6	-0.853715817442604385512083808862	-0.002205025753585424311276064202	-0.529003259133313585849123228400
6	0.472981935183297008684633055964	-0.079583002902581065352016764791	-0.039121280973094023358793691614
1	-1.284063360242733597971209746902	0.964653151390969521017382248829	-0.190470336511838950199759779025
1	-0.453125924897166798555048217167	-0.661646034166832430756244320946	0.622915282149246962717370479368
1	1.044607434691342318089368745859	0.735335703566591503133054175123	0.423891165918567902615166076430
1	1.073315628526044562818242411595	-0.956554879027738169661176925729	-0.288213221724528789735586542520

