%RWF=./tmp/2366672950816040391/rwf
%Int=./tmp/2366672950816040391/int
%D2E=./tmp/2366672950816040391/d2e
%Scr=./tmp/2366672950816040391/skr
%NoSave
%chk=./tmp/2366672950816040391/chk
%nproc=1
%mem=1000mb
# B3lyp/3-21g nosym freq


0 1
6	-0.365319373675952074886907894324	0.059894606735885737303082265726	-0.162766833404407840202310353561
6	0.623930282338699071509324767248	-0.860345415774118049689889176079	0.497930363672715925460465768992
1	-0.546131481726101819518248703389	0.941417759720081126495472290117	0.482182706410706929389675678976
1	-1.317857014937690918188195610128	-0.416335148534843768608482150739	-0.403553945827009985514166601206
1	0.076781234965055275565326553533	0.487267962523489750470417902761	-1.083423049236052593258250453800
1	1.528596248854167338748766269418	-0.211899851563674107568502336107	0.669629108109084825173340504989

