%RWF=./tmp/6165481552517470805/rwf
%Int=./tmp/6165481552517470805/int
%D2E=./tmp/6165481552517470805/d2e
%Scr=./tmp/6165481552517470805/skr
%NoSave
%chk=./tmp/6165481552517470805/chk
%nproc=3
%mem=1000mb
# B3lyp/3-21g nosym freq


0 1
6	-0.845267154469489190304898329487	-0.195652367408050892327864289655	-0.000001936956589421105198517079
6	0.430300357286282075808259151017	-0.429404761635188203516833027606	-0.000001469505283618825406443732
1	-1.260385636107329343502669871668	0.810000695611065357759628113854	0.000001258955695102100338323369
1	-1.583969329221733612911293676007	-1.006412111375249773814744003175	-0.000005326713265609085632128639
1	2.067474485529841921049865050009	2.009027291759556632655403518584	0.000009069301086621227149064776
1	1.191847172800605481057800716371	-1.187558833845308026155862535234	-0.000003245356604797577241888675

