%RWF=./tmp/195561348079008353/rwf
%Int=./tmp/195561348079008353/int
%D2E=./tmp/195561348079008353/d2e
%Scr=./tmp/195561348079008353/skr
%NoSave
%chk=./tmp/195561348079008353/chk
%nproc=1
%mem=1000mb
# B3lyp/3-21g nosym freq


0 1
6	-0.852893295933597750391186309571	-0.003703877118710062563838869565	-0.530328757504668901745503717393
6	0.472808494120634581481255054314	0.080700674138644179489432417540	-0.038910027305530253682874786136
1	-0.456022358038061126350726226519	0.664368105573092226912024216290	0.617888898840596167971739305358
1	-1.280948295809122949862057794235	-0.969592647962227216495989523537	-0.186176293554658700557524753094
1	1.071007718758655746782437745424	0.957767114729084712010376279068	-0.292755708283330473573613517146
1	1.046047632719671494072599671199	-0.729539456253057938539541282807	0.430280237532631060215493334908

