%RWF=./tmp/4980380546998739895/rwf
%Int=./tmp/4980380546998739895/int
%D2E=./tmp/4980380546998739895/d2e
%Scr=./tmp/4980380546998739895/skr
%NoSave
%chk=./tmp/4980380546998739895/chk
%nproc=1
%mem=1000mb
# B3lyp/3-21g nosym freq


0 1
6	-0.472981947838233773850902252889	-0.079583392775347372438687898466	0.039120200835066606948053902215
6	0.853715764268319188268208108639	-0.002208171667779890937760578495	0.529002720319955432870528966305
1	-1.044607681726104297936785769707	0.735338116756447224275916596525	-0.423887019795622654871891654693
1	-1.073315380679202180047582260158	-0.956557053062264128762137715967	0.288206491762993732841380278842
1	1.284063043990985919506897516840	0.964652308842363193086555384070	0.190476037766212441537660993163
1	0.453126097802411476056505534871	-0.661641894986593537275609833159	-0.622920081163568228888038902369

