%nproc=3
%chk=chk
%mem=1000mb
# B3lyp/3-21g nosym opt


0 1
8 0.000000000     -0.556818182      0.031858106
1 0.000000000      0.202518818      0.627901106
1 0.000000000     -1.316155182      0.627901106



