%RWF=./tmp/7518573442850008323/rwf
%Int=./tmp/7518573442850008323/int
%D2E=./tmp/7518573442850008323/d2e
%Scr=./tmp/7518573442850008323/skr
%NoSave
%chk=./tmp/7518573442850008323/chk
%nproc=3
%mem=1000mb
# B3lyp/3-21g nosym freq


0 1
6	-0.664417409526794955354489502497	-0.009284917289803091416944269554	0.017217849009513799818371637684
6	0.664417394718226472782873770484	0.009280825027475661861964262300	-0.017218192197579383628802673911
1	-1.252036452403631816565621193149	0.903422116417651577258141060156	-0.010023431431831823085198962531
1	-1.224138288191765511214725847822	-0.938015503256776184137777363503	0.074141985282998576489710274018
1	1.224128210499398461408304683573	0.938017306444812515309195077862	-0.074143793274111746693932900598
1	1.252046440722746067919501911092	-0.903419914236534338236594976479	0.010023932336049085414786397052

