%RWF=./tmp/4612904602660006654/rwf
%Int=./tmp/4612904602660006654/int
%D2E=./tmp/4612904602660006654/d2e
%Scr=./tmp/4612904602660006654/skr
%NoSave
%chk=./tmp/4612904602660006654/chk
%nproc=3
%mem=1000mb
# B3lyp/3-21g nosym freq


0 1
6	-0.664323577684745258942200507590	0.010565292070351060479960203509	0.020066411929292458232731988232
6	0.664323853159354049680018761137	-0.010551254558636554911621452391	-0.020064789468454701654165361902
1	-1.219164458384051075157117338676	0.930634640215696196108297044702	0.177157046073888130299778254084
1	-1.256551226198271198342126808711	-0.891290282910491282741816121415	-0.102352119501547308977329464597
1	1.256586012871193425155524892034	0.891282664375900424147403100505	0.102349355874214842376801470891
1	1.219129292054697444314115273301	-0.930641146085994797054752325494	-0.177157555182355153089446275771

