%RWF=./tmp/14159740233999471382/rwf
%Int=./tmp/14159740233999471382/int
%D2E=./tmp/14159740233999471382/d2e
%Scr=./tmp/14159740233999471382/skr
%NoSave
%chk=./tmp/14159740233999471382/chk
%nproc=4
%mem=1000mb
# B3lyp/3-21g nosym force
 
 
0 1
6	-0.024277262093627693245734278094	0.845332321333333802648724031314	0.062560220908423003205456325304
7	0.122179575382741059663693761195	0.885835852702401949088084620598	1.518941466311875876371573212964
7	1.153948932164470697614433447598	0.406151823920282650792756840019	2.103536830141542690597589171375
6	2.182720654349535216454114561202	-0.246387943710658141593938808001	1.322414658350119731622385188530
6	-0.805406267996916169771282056900	-0.026043083393427288868560154356	-0.579599767597747894676274427184
1	-1.304725006504980244770308672742	-0.850565074836621470844022496749	-0.056962343166127235583040544498
1	-0.980189252106657638030640100624	0.074767128399489207746242414032	-1.654079628493789089205279196904
6	3.264144613925626270400925932336	-0.677949252881845487728185162268	1.970765784469951098500928310386
1	3.336257484988990995589119847864	-0.536406509384574570198367382545	3.044666846097217938194035014021
1	4.083903085716799274962340859929	-1.168953035384262317819548115949	1.459705239286194666803453401371
1	2.039440875589881851936979728634	-0.365492157912727266833030626003	0.251056731370100649769483425189
1	0.453949566604137100256366466056	1.703210931158608998359227371111	-0.446816037677761568325252028444
 
