%RWF=./tmp/14159740233999471382/rwf
%Int=./tmp/14159740233999471382/int
%D2E=./tmp/14159740233999471382/d2e
%Scr=./tmp/14159740233999471382/skr
%NoSave
%chk=./tmp/14159740233999471382/chk
%nproc=3
%mem=1000mb
# B3lyp/3-21g nosym force
 
 
0 1
6	0.017394985139186455724846780413	0.423804024496120756992922906647	0.044218197300088524226424624430
7	-0.020230710402339313613850890761	0.125559922698879417035655592372	1.453033306747905095690498455951
7	1.058549436532407295175062245107	-0.163474786984618619678499840120	2.090478009997263075803175524925
6	2.282603236856375339414171321550	-0.434706235486178038662785638735	1.380111895513505215760119426704
6	-1.112481465145142012218570926052	0.357581268148126962813648788142	-0.660925177815107844914166435046
1	-2.026498628454189265823970345082	0.029345591901600048823084421201	-0.185934472736536571257914829403
1	-1.145296830753798955626621136616	0.616551658252079692879021877161	-1.711430692179346069181633538392
6	3.444423511948466742893515402102	-0.330472519264503772351559973686	2.025617147645358606666832201881
1	3.463305484540755596611916189431	0.009617628194147576081718398200	3.051415492485380909215564315673
1	4.385998217164313039972967089852	-0.568095911097895478469865793159	1.547185278889355641851466316439
1	2.230699424248477225063425066764	-0.798190084999956805944520965568	0.359592010731608624496402626392
1	0.943480338325488721018530213769	0.775980444142197134382854528667	-0.397170996579475243937196182742
 
