%RWF=./tmp/14159740233999471382/rwf
%Int=./tmp/14159740233999471382/int
%D2E=./tmp/14159740233999471382/d2e
%Scr=./tmp/14159740233999471382/skr
%NoSave
%chk=./tmp/14159740233999471382/chk
%nproc=4
%mem=1000mb
# B3lyp/3-21g nosym force
 
 
0 1
6	-0.024087283418245522548239989646	0.842093217513358083259333852766	0.063543897514293123940376517567
7	0.123165628441655045088864994796	0.879663351342731769655358675664	1.514575863585613024753229183261
7	1.152789255851283112264127339586	0.401353206985130439576892058540	2.101937036723120488801441752003
6	2.182279755326625991784794678097	-0.247302908709765040251582490782	1.323125774678460375710642438207
6	-0.806349792902154471896380982798	-0.019349281576461770104646831214	-0.583119866539707598640518426691
1	-1.303581995757432832050426441128	-0.831122514178208038337913876603	-0.064198379452814632872836853039
1	-0.981275127779742573075338896160	0.076048217714410434875382804876	-1.648215898744428420386043399049
6	3.265508838522202861298637799337	-0.674507004266932330693862240878	1.971898284619170826914569261135
1	3.339309462999390021309409348760	-0.530473625061344877806845943269	3.044238715389732785610021892353
1	4.084850547785420893376340245595	-1.164564349977800228330693244061	1.459858330365580325604923928040
1	2.039017945401008002903608939960	-0.370215903000958856949864639319	0.253268842144362127388745875578
1	0.450319765549989592390289772084	1.681878593225840212710409105057	-0.440722600283383225683309092346
 
