%RWF=./tmp/14159740233999471382/rwf
%Int=./tmp/14159740233999471382/int
%D2E=./tmp/14159740233999471382/d2e
%Scr=./tmp/14159740233999471382/skr
%NoSave
%chk=./tmp/14159740233999471382/chk
%nproc=4
%mem=1000mb
# B3lyp/3-21g nosym force
 
 
0 1
6	-0.025061171238644191355815493694	0.846768915558382406771897876752	0.062947505392992264550144909663
7	0.125966013980350149958908900771	0.888121812779575692253786201036	1.513723354560213785191535862396
7	1.153972850854168896717055758927	0.406272316798815757987739516466	2.100937512096161530195104205632
6	2.181328023774403046530778738088	-0.246009265770602586487214580302	1.322068197342428197416097646055
6	-0.800833596773866118745388575917	-0.022974824257030734830919982414	-0.580858318574427046065977719991
1	-1.289348943140380843175307745696	-0.839730277086533027919301730435	-0.060647106403393095941378732050
1	-0.980173975508160100211796361691	0.071139698507023785278846617075	-1.645593165174650929216682015976
6	3.262109962222992987079805971007	-0.678715246230906621427436675731	1.971287508746623284849874835345
1	3.335013528567331242413729341934	-0.537545735460879803291334155801	3.044091401277258857049901052960
1	4.080492674621241988575093273539	-1.170415667781629309729396481998	1.459208811261506255618769500870
1	2.039079864134369035610916398582	-0.365238421066893859112667541922	0.251666261488979858818026968947
1	0.439401768526193614583519320149	1.691827694020678451991557267320	-0.442641962013692713551193946842
 
