%RWF=./tmp/14159740233999471382/rwf
%Int=./tmp/14159740233999471382/int
%D2E=./tmp/14159740233999471382/d2e
%Scr=./tmp/14159740233999471382/skr
%NoSave
%chk=./tmp/14159740233999471382/chk
%nproc=4
%mem=1000mb
# B3lyp/3-21g nosym force
 
 
0 1
6	0.116384526615144243133492807374	0.254984327784429865015880523060	0.105346026287106667163051554326
7	-0.068699808561092964853678211057	-0.407291855812280445547912677284	1.375991239828318501992043820792
7	0.942969778041139683466553833568	-0.891079682794506222620611879393	1.989364748843517327614449641260
6	2.286366180342637388633875161759	-0.841082601245060290651167633769	1.422758272072411900310839882877
6	-0.974712105723889776776047710882	0.687214385104458203024080376053	-0.526645306654289435677185338136
1	-1.949612112619209858266344781441	0.538645845642658382956824425492	-0.075449590933019117233726547056
1	-0.921644756569613643470972874638	1.185514602121662486311493012181	-1.487143192382301970511093713867
6	3.220925849267060048219946111203	0.031385978000618659777831709334	1.793832918294708811401960701915
1	2.997762532947409130912319596973	0.845024591214707188058241627004	2.474836496826966936168901156634
1	4.240355586759763539816958655138	-0.057624683068107383776546015497	1.437442394847604498764326308446
1	2.509347075177138730595061133499	-1.683178487483605767494054816780	0.770285681942038724656640624744
1	1.122504254333513973307390187983	0.380988580525024767009512061122	-0.284429688973062699819394083534
 
