%RWF=./tmp/14159740233999471382/rwf
%Int=./tmp/14159740233999471382/int
%D2E=./tmp/14159740233999471382/d2e
%Scr=./tmp/14159740233999471382/skr
%NoSave
%chk=./tmp/14159740233999471382/chk
%nproc=4
%mem=1000mb
# B3lyp/3-21g nosym force


0 1
6	-0.022073535846437262325503425586	0.831699966377879906787029540283	0.063991473776965568376340343093
7	0.116974227280301074083368462198	0.862708191690982562072065320535	1.516303887197053112956268705602
7	1.150928028007762282669546038960	0.393406553205352671476191517286	2.103804497876127665989542947500
6	2.186096497719335562948117512860	-0.245423925348011384706126136734	1.324636249933742071505093917949
6	-0.818742492405791444376461640786	-0.013460405916349230809325732139	-0.586399523981378512083040277503
1	-1.335814954617325911456759968132	-0.813662524126966379967029752152	-0.068873063330797623660117778854
1	-0.983606809306604379372629409772	0.082377491567926064419680187711	-1.653029476005784426106970386172
6	3.271672254452302031069166332600	-0.667148847673334599583938597789	1.973114007583302242920808566851
1	3.344428631437065924103535508038	-0.523868886242821019116888692224	3.045616523940037012607717770152
1	4.093456798626474935076657857280	-1.152777071697203670197495739558	1.460773747686808121670765103772
1	2.043536108841359499876944028074	-0.369728386972830336265616324454	0.254770415440552233654614155967
1	0.475092245831554738089153033798	1.659378845145376590863861565595	-0.438518740116627447900299330286

