%RWF=./tmp/14159740233999471382/rwf
%Int=./tmp/14159740233999471382/int
%D2E=./tmp/14159740233999471382/d2e
%Scr=./tmp/14159740233999471382/skr
%NoSave
%chk=./tmp/14159740233999471382/chk
%nproc=3
%mem=1000mb
# B3lyp/3-21g nosym force


0 1
6	0.013855779984492626669134729411	0.359192897631525953627829039760	-0.025075298442787934127817806029
7	0.012225761613707289768293584586	0.123338497835479427022775666956	1.392716895471159732622368210286
7	1.101645740307183984896255424246	-0.123736571338138381936921916804	2.032420871711153598226928806980
6	2.359082494154151277143682818860	-0.350670267063236562599115586636	1.363786240275952854617003140447
6	-1.192448624058616957199774333276	0.367753512098556945009164564908	-0.646859317831665059372880932642
1	-2.080659191972069166354231128935	0.168068584647981744684130944734	-0.071054116242495149458058278924
1	-1.277751780044195317742605766398	0.565740576301138164971860078367	-1.701120753754927772405380892451
6	3.453172893171812418700028501917	-0.360491689346845889385662076165	2.092789589209975265049479276058
1	3.394527912351972265270205753040	-0.167320215600746391437780857814	3.165283476230853043631441323669
1	4.439147872456013388386963924859	-0.552509461806085178103842281416	1.668554985531637724349707241345
1	2.381480532217615575518721016124	-0.571365018764923848770820313803	0.290490795342615626406512774338
1	0.917667609817933271898482416873	0.585500155405293876142991393863	-0.565743367501472582681287804007

