%RWF=./tmp/8370785104702993942/rwf
%Int=./tmp/8370785104702993942/int
%D2E=./tmp/8370785104702993942/d2e
%Scr=./tmp/8370785104702993942/skr
%NoSave
%chk=./tmp/8370785104702993942/chk
%nproc=3
%mem=1000mb
# B3lyp/3-21g nosym freq


0 1
6	-0.675002914606986248458042609855	0.017126858537410825922275847688	0.142459904819827121169595329775
6	0.675012992503014497280844352645	-0.017123561511724727512984145505	0.142481855226538334235897309554
1	-1.169398863948363898046522990626	0.870508585910513610350847102382	-0.223714662978533818105120190012
1	-1.223491778687353814802918350324	-0.919972759697524677946489646274	0.081245898969048713222917967869
1	1.223509302137109511221524371649	0.919969255493340076768049584643	0.081249002598915626149889135377
1	1.169371158420757339513329498004	-0.870508465625190130943167332589	-0.223723648910758077246185848708

