%RWF=./tmp/18232206848995243343/rwf
%Int=./tmp/18232206848995243343/int
%D2E=./tmp/18232206848995243343/d2e
%Scr=./tmp/18232206848995243343/skr
%NoSave
%chk=./tmp/18232206848995243343/chk
%nproc=1
%mem=1000mb
# B3lyp/3-21g nosym freq


0 1
6	-0.578137246903574597567398996034	0.537660228243735716091578069609	0.040869682789833786107358548634
6	0.245690308180903427270891370426	0.855724074778911214522736372601	1.191088105937118557520193462551
1	-1.518191263085608921912239566154	1.113026915229189395262210382498	-0.052137267529421604805861534260
1	-0.785533301136061234970497935137	-0.538383297084386591713212055765	-0.096485517407046417215354949803
1	0.079617964085347867064790250424	0.840603011074915418276987111312	-0.806436868765014858162487598747
1	2.556553434677169445166100558708	-2.808631019135541695419533425593	-0.276899785300431855450398188623

