%RWF=./tmp/620491461164253268/rwf
%Int=./tmp/620491461164253268/int
%D2E=./tmp/620491461164253268/d2e
%Scr=./tmp/620491461164253268/skr
%NoSave
%chk=./tmp/620491461164253268/chk
%nproc=3
%mem=1000mb
# B3lyp/3-21g nosym freq


0 1
6	-0.711376115000993403114648572227	0.003476009726104691086728815108	-0.253756574810115098639329289654
6	1.348049257906610787216550306766	0.002619598000149373027284349646	-0.347951982418792049589484349781
1	-1.180718446231244778132918327174	0.918508824892050435018120424502	0.124898602651129356222448052449
1	-1.169934639697189249218922668661	-0.906857064556116254649964503187	0.150677716979915388151312072296
1	0.842320170706631454748958276468	0.854287442730393586920456527878	0.175960754164910804231425345279
1	0.871659668134364240543732194055	-0.872034897685756482665908606577	0.150169833157990068039921993659

